\ Model corn_sched_v6_copy
\ LP format - for model browsing. Use MPS format to capture full model detail.
Minimize
 
Subject To
 R0: Plant[F001,15] + Plant[F001,16] + Plant[F001,17] + Plant[F001,18]
   + Plant[F001,19] + Plant[F001,20] = 1
 R63: Plant[F010,15] + Plant[F010,16] + Plant[F010,17] + Plant[F010,18]
   + Plant[F010,19] + Plant[F010,20] = 1
 R84: Plant[F013,15] + Plant[F013,16] + Plant[F013,17] + Plant[F013,18]
   + Plant[F013,19] + Plant[F013,20] = 1
 R98: Plant[F015,15] + Plant[F015,16] + Plant[F015,17] + Plant[F015,18]
   + Plant[F015,19] + Plant[F015,20] = 1
 R119: Plant[F018,15] + Plant[F018,16] + Plant[F018,17] + Plant[F018,18]
   + Plant[F018,19] + Plant[F018,20] = 1
 R126: Plant[F019,15] + Plant[F019,16] + Plant[F019,17] + Plant[F019,18]
   + Plant[F019,19] + Plant[F019,20] = 1
 R133: Plant[F020,15] + Plant[F020,16] + Plant[F020,17] + Plant[F020,18]
   + Plant[F020,19] + Plant[F020,20] = 1
 R161: Plant[F024,15] + Plant[F024,16] + Plant[F024,17] + Plant[F024,18]
   + Plant[F024,19] + Plant[F024,20] = 1
 R168: Plant[F025,15] + Plant[F025,16] + Plant[F025,17] + Plant[F025,18]
   + Plant[F025,19] + Plant[F025,20] = 1
 R217: 87.22774858383657 Plant[F001,15] + 54.75251357802613 Plant[F002,15]
   + 101.8332884085435 Plant[F003,15] + 108.7902551826313 Plant[F004,15]
   + 40 Plant[F005,15] + 50.01471682297505 Plant[F006,15]
   + 82.03470514648959 Plant[F007,15] + 70.32922150437093 Plant[F008,15]
   + 78.0206287625772 Plant[F009,15] + 58.40605543433634 Plant[F010,15]
   + 106.5012298403713 Plant[F011,15] + 102.8055155561565 Plant[F012,15]
   + 80.2944751514944 Plant[F013,15] + 116.0870192003857 Plant[F014,15]
   + 92.29987303719844 Plant[F015,15] + 58.28003379439069 Plant[F016,15]
   + 89.18844028879477 Plant[F017,15] + 56.30824120555002 Plant[F018,15]
   + 106.466149408193 Plant[F019,15] + 77.12960203277937 Plant[F020,15]
   + 73.60481903316479 Plant[F021,15] + 61.98788978146701 Plant[F022,15]
   + 120 Plant[F023,15] + 74.38272734463212 Plant[F024,15]
   + 67.65131909431329 Plant[F025,15] <= 120
 R220: 87.22774858383657 Plant[F001,16] + 54.75251357802613 Plant[F002,16]
   + 101.8332884085435 Plant[F003,16] + 108.7902551826313 Plant[F004,16]
   + 40 Plant[F005,16] + 50.01471682297505 Plant[F006,16]
   + 82.03470514648959 Plant[F007,16] + 70.32922150437093 Plant[F008,16]
   + 78.0206287625772 Plant[F009,16] + 58.40605543433634 Plant[F010,16]
   + 106.5012298403713 Plant[F011,16] + 102.8055155561565 Plant[F012,16]
   + 80.2944751514944 Plant[F013,16] + 116.0870192003857 Plant[F014,16]
   + 92.29987303719844 Plant[F015,16] + 58.28003379439069 Plant[F016,16]
   + 89.18844028879477 Plant[F017,16] + 56.30824120555002 Plant[F018,16]
   + 106.466149408193 Plant[F019,16] + 77.12960203277937 Plant[F020,16]
   + 73.60481903316479 Plant[F021,16] + 61.98788978146701 Plant[F022,16]
   + 120 Plant[F023,16] + 74.38272734463212 Plant[F024,16]
   + 67.65131909431329 Plant[F025,16] <= 210
 R223: 87.22774858383657 Plant[F001,17] + 54.75251357802613 Plant[F002,17]
   + 101.8332884085435 Plant[F003,17] + 108.7902551826313 Plant[F004,17]
   + 40 Plant[F005,17] + 50.01471682297505 Plant[F006,17]
   + 82.03470514648959 Plant[F007,17] + 70.32922150437093 Plant[F008,17]
   + 78.0206287625772 Plant[F009,17] + 58.40605543433634 Plant[F010,17]
   + 106.5012298403713 Plant[F011,17] + 102.8055155561565 Plant[F012,17]
   + 80.2944751514944 Plant[F013,17] + 116.0870192003857 Plant[F014,17]
   + 92.29987303719844 Plant[F015,17] + 58.28003379439069 Plant[F016,17]
   + 89.18844028879477 Plant[F017,17] + 56.30824120555002 Plant[F018,17]
   + 106.466149408193 Plant[F019,17] + 77.12960203277937 Plant[F020,17]
   + 73.60481903316479 Plant[F021,17] + 61.98788978146701 Plant[F022,17]
   + 120 Plant[F023,17] + 74.38272734463212 Plant[F024,17]
   + 67.65131909431329 Plant[F025,17] <= 120
 R226: 87.22774858383657 Plant[F001,18] + 54.75251357802613 Plant[F002,18]
   + 101.8332884085435 Plant[F003,18] + 108.7902551826313 Plant[F004,18]
   + 40 Plant[F005,18] + 50.01471682297505 Plant[F006,18]
   + 82.03470514648959 Plant[F007,18] + 70.32922150437093 Plant[F008,18]
   + 78.0206287625772 Plant[F009,18] + 58.40605543433634 Plant[F010,18]
   + 106.5012298403713 Plant[F011,18] + 102.8055155561565 Plant[F012,18]
   + 80.2944751514944 Plant[F013,18] + 116.0870192003857 Plant[F014,18]
   + 92.29987303719844 Plant[F015,18] + 58.28003379439069 Plant[F016,18]
   + 89.18844028879477 Plant[F017,18] + 56.30824120555002 Plant[F018,18]
   + 106.466149408193 Plant[F019,18] + 77.12960203277937 Plant[F020,18]
   + 73.60481903316479 Plant[F021,18] + 61.98788978146701 Plant[F022,18]
   + 120 Plant[F023,18] + 74.38272734463212 Plant[F024,18]
   + 67.65131909431329 Plant[F025,18] <= 120
 R229: 87.22774858383657 Plant[F001,19] + 54.75251357802613 Plant[F002,19]
   + 101.8332884085435 Plant[F003,19] + 108.7902551826313 Plant[F004,19]
   + 40 Plant[F005,19] + 50.01471682297505 Plant[F006,19]
   + 82.03470514648959 Plant[F007,19] + 70.32922150437093 Plant[F008,19]
   + 78.0206287625772 Plant[F009,19] + 58.40605543433634 Plant[F010,19]
   + 106.5012298403713 Plant[F011,19] + 102.8055155561565 Plant[F012,19]
   + 80.2944751514944 Plant[F013,19] + 116.0870192003857 Plant[F014,19]
   + 92.29987303719844 Plant[F015,19] + 58.28003379439069 Plant[F016,19]
   + 89.18844028879477 Plant[F017,19] + 56.30824120555002 Plant[F018,19]
   + 106.466149408193 Plant[F019,19] + 77.12960203277937 Plant[F020,19]
   + 73.60481903316479 Plant[F021,19] + 61.98788978146701 Plant[F022,19]
   + 120 Plant[F023,19] + 74.38272734463212 Plant[F024,19]
   + 67.65131909431329 Plant[F025,19] <= 120
 R232: 87.22774858383657 Plant[F001,20] + 54.75251357802613 Plant[F002,20]
   + 101.8332884085435 Plant[F003,20] + 108.7902551826313 Plant[F004,20]
   + 40 Plant[F005,20] + 50.01471682297505 Plant[F006,20]
   + 82.03470514648959 Plant[F007,20] + 70.32922150437093 Plant[F008,20]
   + 78.0206287625772 Plant[F009,20] + 58.40605543433634 Plant[F010,20]
   + 106.5012298403713 Plant[F011,20] + 102.8055155561565 Plant[F012,20]
   + 80.2944751514944 Plant[F013,20] + 116.0870192003857 Plant[F014,20]
   + 92.29987303719844 Plant[F015,20] + 58.28003379439069 Plant[F016,20]
   + 89.18844028879477 Plant[F017,20] + 56.30824120555002 Plant[F018,20]
   + 106.466149408193 Plant[F019,20] + 77.12960203277937 Plant[F020,20]
   + 73.60481903316479 Plant[F021,20] + 61.98788978146701 Plant[F022,20]
   + 120 Plant[F023,20] + 74.38272734463212 Plant[F024,20]
   + 67.65131909431329 Plant[F025,20] <= 120
Bounds
Binaries
 Plant[F001,15] Plant[F001,16] Plant[F001,17] Plant[F001,18] Plant[F001,19]
 Plant[F001,20] Plant[F002,15] Plant[F002,16] Plant[F002,17] Plant[F002,18]
 Plant[F002,19] Plant[F002,20] Plant[F003,15] Plant[F003,16] Plant[F003,17]
 Plant[F003,18] Plant[F003,19] Plant[F003,20] Plant[F004,15] Plant[F004,16]
 Plant[F004,17] Plant[F004,18] Plant[F004,19] Plant[F004,20] Plant[F005,15]
 Plant[F005,16] Plant[F005,17] Plant[F005,18] Plant[F005,19] Plant[F005,20]
 Plant[F006,15] Plant[F006,16] Plant[F006,17] Plant[F006,18] Plant[F006,19]
 Plant[F006,20] Plant[F007,15] Plant[F007,16] Plant[F007,17] Plant[F007,18]
 Plant[F007,19] Plant[F007,20] Plant[F008,15] Plant[F008,16] Plant[F008,17]
 Plant[F008,18] Plant[F008,19] Plant[F008,20] Plant[F009,15] Plant[F009,16]
 Plant[F009,17] Plant[F009,18] Plant[F009,19] Plant[F009,20] Plant[F010,15]
 Plant[F010,16] Plant[F010,17] Plant[F010,18] Plant[F010,19] Plant[F010,20]
 Plant[F011,15] Plant[F011,16] Plant[F011,17] Plant[F011,18] Plant[F011,19]
 Plant[F011,20] Plant[F012,15] Plant[F012,16] Plant[F012,17] Plant[F012,18]
 Plant[F012,19] Plant[F012,20] Plant[F013,15] Plant[F013,16] Plant[F013,17]
 Plant[F013,18] Plant[F013,19] Plant[F013,20] Plant[F014,15] Plant[F014,16]
 Plant[F014,17] Plant[F014,18] Plant[F014,19] Plant[F014,20] Plant[F015,15]
 Plant[F015,16] Plant[F015,17] Plant[F015,18] Plant[F015,19] Plant[F015,20]
 Plant[F016,15] Plant[F016,16] Plant[F016,17] Plant[F016,18] Plant[F016,19]
 Plant[F016,20] Plant[F017,15] Plant[F017,16] Plant[F017,17] Plant[F017,18]
 Plant[F017,19] Plant[F017,20] Plant[F018,15] Plant[F018,16] Plant[F018,17]
 Plant[F018,18] Plant[F018,19] Plant[F018,20] Plant[F019,15] Plant[F019,16]
 Plant[F019,17] Plant[F019,18] Plant[F019,19] Plant[F019,20] Plant[F020,15]
 Plant[F020,16] Plant[F020,17] Plant[F020,18] Plant[F020,19] Plant[F020,20]
 Plant[F021,15] Plant[F021,16] Plant[F021,17] Plant[F021,18] Plant[F021,19]
 Plant[F021,20] Plant[F022,15] Plant[F022,16] Plant[F022,17] Plant[F022,18]
 Plant[F022,19] Plant[F022,20] Plant[F023,15] Plant[F023,16] Plant[F023,17]
 Plant[F023,18] Plant[F023,19] Plant[F023,20] Plant[F024,15] Plant[F024,16]
 Plant[F024,17] Plant[F024,18] Plant[F024,19] Plant[F024,20] Plant[F025,15]
 Plant[F025,16] Plant[F025,17] Plant[F025,18] Plant[F025,19] Plant[F025,20]
End
